(declare-const conc0 Real)
(assert (and (>= conc0 0) (<= conc0 100)))
(declare-const conc1 Real)
(assert (and (>= conc1 0) (<= conc1 100)))
(declare-const conc2 Real)
(assert (and (>= conc2 0) (<= conc2 100)))
(declare-const conc3 Real)
(assert (and (>= conc3 0) (<= conc3 100)))
(declare-const conc4 Real)
(assert (and (>= conc4 0) (<= conc4 100)))
(declare-const conc5 Real)
(assert (and (>= conc5 0) (<= conc5 100)))
(declare-const conc6 Real)
(assert (and (>= conc6 0) (<= conc6 100)))
(declare-const conc7 Real)
(assert (and (>= conc7 0) (<= conc7 100)))
(declare-const conc8 Real)
(assert (and (>= conc8 0) (<= conc8 100)))
(declare-const conc9 Real)
(assert (and (>= conc9 0) (<= conc9 100)))
(declare-const conc10 Real)
(assert (and (>= conc10 0) (<= conc10 100)))
(declare-const conc11 Real)
(assert (and (>= conc11 0) (<= conc11 100)))
(declare-const coef0 Real)
(assert (= coef0 (- (* 1.0000000000 conc0 conc1 ) (* 0.8187307715 conc2 ))))
(declare-const coef1 Real)
(assert (= coef1 (- (* 0.8187307715 conc0 conc2 ) (* 1.0000000000 conc3 ))))
(declare-const coef2 Real)
(assert (= coef2 (- (* 1.0000000000 conc1 conc1 ) (* 1.0000000000 conc3 ))))
(assert (> (+ (- coef0) (- coef2) (- coef2) 0) 0.0001000000))
(assert (> (+ coef0 (- coef1) 0) 0.0001000000))
(assert (> (+ coef1 coef2 0) 0.0001000000))
(declare-const coef3 Real)
(assert (= coef3 (- (* 1.0000000000 conc4 conc0 ) (* 1.0000000000 conc5 ))))
(declare-const coef4 Real)
(assert (= coef4 (- (* 1.0000000000 conc5 conc8 ) (* 1.0000000000 conc7 ))))
(declare-const coef5 Real)
(assert (= coef5 (- (* 1.0000000000 conc4 conc4 ) (* 1.0000000000 conc7 ))))
(assert (> (+ (- coef3) (- coef5) (- coef5) 0) 0.0001000000))
(assert (> (+ coef3 (- coef4) 0) 0.0001000000))
(assert (> (+ coef4 coef5 0) 0.0001000000))
(check-sat)
(get-model)
